120
3544
60
0 4
0 5
0 7
0 8
0 10
0 11
0 12
0 13
0 14
0 15
0 16
0 19
0 23
0 25
0 26
0 27
0 30
0 31
0 32
0 33
0 34
0 35
0 36
0 47
0 48
0 53
0 54
0 59
0 61
0 63
0 64
0 68
0 70
0 72
0 77
0 79
0 82
0 84
0 85
0 86
0 88
0 89
0 90
0 92
0 94
0 96
0 97
0 98
0 99
0 100
0 104
0 105
0 106
0 107
0 108
0 111
0 116
0 118
0 119
1 3
1 4
1 6
1 7
1 8
1 9
1 12
1 13
1 16
1 17
1 19
1 20
1 22
1 24
1 26
1 29
1 31
1 32
1 33
1 34
1 35
1 37
1 38
1 40
1 41
1 42
1 43
1 44
1 45
1 46
1 47
1 48
1 55
1 56
1 57
1 59
1 60
1 61
1 63
1 64
1 65
1 68
1 69
1 74
1 75
1 81
1 83
1 84
1 87
1 88
1 91
1 93
1 94
1 95
1 99
1 100
1 102
1 103
1 105
1 107
1 108
1 109
1 111
1 112
1 114
1 116
1 118
2 3
2 5
2 7
2 8
2 9
2 10
2 13
2 15
2 16
2 17
2 19
2 21
2 24
2 25
2 26
2 29
2 30
2 32
2 34
2 36
2 49
2 51
2 52
2 55
2 56
2 58
2 59
2 61
2 65
2 66
2 68
2 69
2 70
2 72
2 75
2 76
2 77
2 79
2 80
2 83
2 84
2 85
2 90
2 91
2 93
2 94
2 98
2 99
2 101
2 102
2 108
2 113
2 115
2 116
2 117
2 119
3 4
3 6
3 14
3 15
3 21
3 22
3 23
3 24
3 26
3 27
3 31
3 34
3 35
3 38
3 42
3 43
3 44
3 46
3 47
3 48
3 49
3 50
3 51
3 52
3 53
3 56
3 58
3 60
3 66
3 67
3 70
3 72
3 74
3 76
3 77
3 78
3 79
3 80
3 81
3 83
3 84
3 86
3 87
3 88
3 89
3 90
3 91
3 93
3 95
3 101
3 102
3 105
3 107
3 109
3 111
3 116
3 118
3 119
4 6
4 8
4 10
4 12
4 13
4 15
4 17
4 21
4 23
4 24
4 25
4 26
4 34
4 36
4 39
4 42
4 43
4 44
4 46
4 49
4 53
4 54
4 55
4 56
4 57
4 58
4 60
4 61
4 63
4 66
4 67
4 69
4 70
4 73
4 75
4 77
4 78
4 79
4 84
4 91
4 92
4 93
4 95
4 96
4 100
4 101
4 102
4 104
4 106
4 113
4 115
4 116
4 118
4 119
5 9
5 11
5 12
5 13
5 15
5 16
5 17
5 18
5 20
5 21
5 24
5 25
5 26
5 28
5 31
5 34
5 35
5 39
5 42
5 43
5 44
5 47
5 48
5 55
5 57
5 61
5 62
5 65
5 67
5 70
5 71
5 72
5 73
5 74
5 75
5 76
5 77
5 78
5 80
5 86
5 87
5 89
5 90
5 93
5 95
5 96
5 98
5 99
5 100
5 101
5 102
5 104
5 106
5 108
5 110
5 111
5 117
5 118
6 8
6 10
6 16
6 17
6 18
6 19
6 21
6 22
6 23
6 25
6 26
6 28
6 29
6 32
6 33
6 34
6 37
6 41
6 42
6 43
6 44
6 45
6 49
6 51
6 53
6 54
6 55
6 56
6 57
6 58
6 59
6 60
6 61
6 63
6 64
6 65
6 68
6 69
6 71
6 72
6 77
6 79
6 80
6 82
6 83
6 84
6 87
6 92
6 93
6 97
6 98
6 99
6 100
6 101
6 105
6 107
6 114
7 9
7 12
7 13
7 15
7 16
7 24
7 26
7 27
7 28
7 29
7 34
7 39
7 42
7 43
7 45
7 46
7 47
7 51
7 54
7 55
7 56
7 57
7 59
7 60
7 66
7 67
7 70
7 71
7 76
7 77
7 78
7 79
7 80
7 82
7 83
7 85
7 87
7 88
7 89
7 90
7 91
7 92
7 93
7 95
7 99
7 101
7 102
7 104
7 105
7 110
7 112
7 113
7 114
7 116
7 117
8 9
8 11
8 12
8 16
8 19
8 20
8 21
8 24
8 26
8 28
8 30
8 31
8 32
8 34
8 35
8 41
8 43
8 47
8 52
8 53
8 54
8 55
8 56
8 60
8 62
8 65
8 67
8 68
8 72
8 75
8 77
8 79
8 82
8 87
8 89
8 90
8 94
8 95
8 102
8 103
8 107
8 110
8 111
8 112
8 113
8 115
8 117
8 118
8 119
9 10
9 11
9 16
9 18
9 19
9 21
9 26
9 34
9 36
9 39
9 42
9 46
9 47
9 49
9 50
9 52
9 53
9 63
9 64
9 65
9 67
9 69
9 72
9 74
9 75
9 77
9 79
9 80
9 81
9 82
9 86
9 87
9 88
9 91
9 93
9 95
9 96
9 97
9 99
9 101
9 102
9 103
9 105
9 107
9 108
9 114
9 115
9 116
9 118
10 12
10 13
10 19
10 20
10 21
10 24
10 26
10 27
10 28
10 30
10 31
10 32
10 33
10 34
10 36
10 40
10 45
10 46
10 47
10 50
10 53
10 58
10 61
10 62
10 66
10 69
10 70
10 72
10 73
10 74
10 75
10 79
10 80
10 82
10 85
10 87
10 88
10 89
10 91
10 92
10 93
10 96
10 97
10 99
10 100
10 101
10 103
10 105
10 106
10 112
10 113
10 114
10 115
10 116
10 117
10 119
11 14
11 15
11 17
11 21
11 25
11 27
11 28
11 34
11 40
11 41
11 46
11 47
11 48
11 51
11 52
11 53
11 54
11 55
11 56
11 57
11 58
11 59
11 65
11 67
11 68
11 69
11 70
11 71
11 74
11 75
11 78
11 81
11 82
11 84
11 86
11 88
11 89
11 92
11 98
11 99
11 100
11 104
11 105
11 106
11 108
11 109
11 110
11 113
11 114
11 115
11 117
12 16
12 20
12 21
12 23
12 24
12 26
12 28
12 30
12 31
12 33
12 34
12 35
12 37
12 38
12 41
12 42
12 45
12 46
12 47
12 49
12 52
12 54
12 57
12 58
12 62
12 64
12 65
12 67
12 68
12 73
12 74
12 78
12 79
12 81
12 82
12 85
12 87
12 88
12 89
12 91
12 97
12 98
12 99
12 102
12 103
12 105
12 108
12 109
12 111
12 112
12 113
12 115
12 116
12 118
12 119
13 14
13 15
13 16
13 19
13 20
13 23
13 25
13 26
13 28
13 30
13 32
13 33
13 39
13 42
13 43
13 45
13 48
13 50
13 53
13 54
13 60
13 62
13 63
13 65
13 66
13 68
13 71
13 73
13 74
13 76
13 77
13 78
13 79
13 80
13 81
13 82
13 83
13 84
13 85
13 86
13 89
13 93
13 97
13 99
13 102
13 104
13 106
13 109
13 113
13 114
13 116
13 118
13 119
14 15
14 16
14 17
14 25
14 26
14 28
14 31
14 33
14 34
14 35
14 36
14 37
14 39
14 41
14 42
14 44
14 49
14 51
14 55
14 60
14 62
14 65
14 66
14 71
14 73
14 74
14 76
14 80
14 83
14 84
14 85
14 86
14 89
14 91
14 94
14 95
14 100
14 102
14 108
14 110
14 112
14 114
14 115
14 116
14 117
14 118
15 16
15 17
15 19
15 21
15 24
15 25
15 26
15 29
15 31
15 32
15 36
15 37
15 39
15 40
15 41
15 42
15 43
15 44
15 48
15 50
15 51
15 56
15 59
15 62
15 63
15 64
15 65
15 66
15 67
15 70
15 72
15 73
15 77
15 78
15 83
15 85
15 86
15 87
15 92
15 93
15 97
15 98
15 99
15 100
15 102
15 103
15 104
15 105
15 112
15 113
15 116
15 117
16 17
16 19
16 20
16 21
16 24
16 25
16 30
16 32
16 33
16 34
16 36
16 38
16 41
16 42
16 46
16 49
16 50
16 52
16 53
16 54
16 58
16 61
16 62
16 63
16 64
16 67
16 73
16 76
16 77
16 78
16 84
16 86
16 87
16 88
16 89
16 90
16 91
16 92
16 93
16 94
16 96
16 98
16 99
16 100
16 101
16 104
16 105
16 106
16 109
16 110
16 113
16 114
16 115
16 117
17 18
17 19
17 21
17 26
17 27
17 29
17 34
17 36
17 37
17 39
17 40
17 42
17 43
17 44
17 45
17 46
17 47
17 49
17 51
17 52
17 53
17 56
17 59
17 62
17 66
17 74
17 77
17 78
17 79
17 80
17 82
17 83
17 90
17 93
17 94
17 97
17 103
17 104
17 105
17 108
17 109
17 110
17 111
17 112
17 113
17 114
17 115
18 20
18 21
18 22
18 28
18 30
18 31
18 33
18 35
18 36
18 39
18 40
18 41
18 42
18 43
18 46
18 49
18 51
18 54
18 55
18 57
18 62
18 63
18 64
18 68
18 70
18 71
18 72
18 73
18 76
18 77
18 78
18 79
18 80
18 87
18 88
18 91
18 92
18 93
18 95
18 96
18 98
18 101
18 102
18 104
18 105
18 106
18 107
18 108
18 111
18 113
18 116
18 117
19 20
19 21
19 22
19 23
19 24
19 25
19 28
19 29
19 31
19 32
19 33
19 34
19 35
19 36
19 38
19 39
19 41
19 42
19 44
19 46
19 47
19 48
19 50
19 51
19 55
19 56
19 57
19 62
19 67
19 70
19 72
19 73
19 74
19 75
19 76
19 84
19 85
19 87
19 88
19 90
19 91
19 92
19 93
19 94
19 95
19 97
19 98
19 100
19 102
19 106
19 109
19 117
20 22
20 23
20 27
20 28
20 29
20 30
20 34
20 37
20 38
20 41
20 42
20 44
20 45
20 47
20 50
20 52
20 57
20 63
20 64
20 66
20 67
20 69
20 70
20 71
20 72
20 73
20 74
20 77
20 78
20 82
20 86
20 88
20 91
20 92
20 94
20 96
20 97
20 98
20 99
20 102
20 103
20 108
20 109
20 110
20 112
20 113
20 114
20 115
21 22
21 23
21 26
21 27
21 31
21 33
21 38
21 39
21 41
21 42
21 44
21 45
21 49
21 51
21 52
21 53
21 56
21 57
21 58
21 59
21 61
21 64
21 66
21 67
21 68
21 71
21 72
21 77
21 78
21 79
21 80
21 82
21 83
21 87
21 92
21 98
21 100
21 104
21 105
21 107
21 108
21 110
21 111
21 113
21 114
21 117
21 119
22 28
22 29
22 30
22 32
22 34
22 41
22 44
22 45
22 46
22 48
22 51
22 52
22 54
22 55
22 56
22 60
22 62
22 63
22 66
22 67
22 72
22 75
22 77
22 78
22 84
22 86
22 92
22 94
22 101
22 103
22 104
22 106
22 109
22 110
22 111
22 114
22 115
22 117
22 118
23 27
23 28
23 32
23 33
23 34
23 37
23 38
23 42
23 43
23 44
23 46
23 47
23 48
23 49
23 51
23 52
23 58
23 59
23 60
23 63
23 64
23 67
23 68
23 69
23 70
23 72
23 75
23 78
23 81
23 82
23 83
23 84
23 89
23 91
23 93
23 97
23 98
23 99
23 100
23 102
23 103
23 104
23 105
23 106
23 107
23 110
23 111
23 112
23 114
23 115
24 26
24 27
24 29
24 33
24 36
24 37
24 38
24 39
24 40
24 41
24 44
24 45
24 48
24 49
24 51
24 52
24 54
24 55
24 61
24 62
24 63
24 70
24 71
24 72
24 73
24 74
24 79
24 81
24 82
24 83
24 84
24 87
24 89
24 92
24 96
24 97
24 98
24 99
24 100
24 107
24 108
24 114
24 115
24 117
24 118
25 26
25 32
25 35
25 37
25 38
25 39
25 40
25 43
25 46
25 47
25 48
25 50
25 51
25 53
25 54
25 56
25 57
25 59
25 62
25 66
25 67
25 70
25 72
25 73
25 77
25 79
25 81
25 82
25 85
25 86
25 88
25 90
25 92
25 97
25 100
25 102
25 108
25 111
25 112
25 113
25 115
25 118
26 28
26 30
26 31
26 33
26 34
26 35
26 37
26 40
26 42
26 46
26 51
26 52
26 53
26 57
26 59
26 61
26 65
26 66
26 67
26 68
26 70
26 71
26 74
26 78
26 80
26 85
26 87
26 88
26 91
26 93
26 94
26 96
26 97
26 98
26 100
26 103
26 104
26 108
26 110
26 111
26 113
26 114
26 115
26 116
26 117
26 118
27 29
27 31
27 34
27 37
27 38
27 40
27 41
27 46
27 47
27 48
27 49
27 51
27 55
27 56
27 58
27 60
27 61
27 62
27 64
27 68
27 69
27 70
27 71
27 72
27 73
27 74
27 75
27 76
27 80
27 82
27 86
27 87
27 88
27 90
27 92
27 95
27 100
27 104
27 105
27 107
27 110
27 112
27 114
27 115
27 117
27 119
28 29
28 30
28 31
28 32
28 33
28 34
28 36
28 38
28 40
28 42
28 47
28 48
28 49
28 52
28 56
28 58
28 59
28 65
28 66
28 67
28 69
28 70
28 71
28 72
28 73
28 74
28 75
28 77
28 81
28 82
28 83
28 84
28 86
28 88
28 89
28 92
28 97
28 98
28 99
28 101
28 102
28 104
28 106
28 110
28 115
28 116
28 117
28 118
29 33
29 34
29 37
29 38
29 40
29 43
29 45
29 49
29 50
29 53
29 57
29 58
29 59
29 61
29 62
29 64
29 65
29 67
29 69
29 70
29 71
29 73
29 74
29 75
29 76
29 77
29 79
29 80
29 82
29 83
29 84
29 85
29 86
29 87
29 88
29 89
29 91
29 94
29 97
29 101
29 104
29 105
29 106
29 107
29 108
29 109
29 110
29 113
29 114
30 33
30 37
30 38
30 39
30 40
30 41
30 43
30 44
30 46
30 47
30 48
30 52
30 54
30 56
30 57
30 58
30 60
30 61
30 62
30 63
30 71
30 72
30 74
30 75
30 76
30 81
30 84
30 85
30 86
30 89
30 90
30 91
30 92
30 93
30 95
30 102
30 103
30 107
30 108
30 109
30 110
30 112
30 113
30 114
30 119
31 32
31 34
31 35
31 36
31 37
31 38
31 39
31 40
31 42
31 43
31 44
31 45
31 46
31 47
31 50
31 52
31 53
31 54
31 55
31 57
31 58
31 59
31 62
31 64
31 66
31 67
31 68
31 69
31 72
31 74
31 75
31 77
31 78
31 79
31 83
31 86
31 87
31 89
31 90
31 91
31 93
31 94
31 96
31 99
31 100
31 101
31 102
31 103
31 105
31 106
31 108
31 111
31 112
31 113
31 115
31 119
32 33
32 35
32 37
32 39
32 41
32 47
32 51
32 52
32 53
32 54
32 56
32 62
32 64
32 65
32 68
32 69
32 70
32 71
32 72
32 77
32 81
32 83
32 84
32 88
32 89
32 92
32 93
32 95
32 96
32 97
32 98
32 100
32 104
32 105
32 106
32 107
32 112
32 113
32 114
32 117
32 118
33 39
33 41
33 42
33 43
33 47
33 50
33 54
33 59
33 61
33 62
33 66
33 67
33 70
33 74
33 76
33 78
33 79
33 81
33 84
33 87
33 89
33 90
33 93
33 94
33 97
33 98
33 101
33 103
33 107
33 108
33 110
33 112
33 116
33 118
34 35
34 39
34 40
34 48
34 49
34 51
34 54
34 55
34 59
34 60
34 62
34 63
34 65
34 68
34 69
34 70
34 71
34 76
34 79
34 80
34 81
34 82
34 84
34 86
34 87
34 88
34 89
34 90
34 95
34 96
34 99
34 102
34 104
34 106
34 110
34 111
34 114
34 118
35 37
35 39
35 40
35 41
35 43
35 44
35 46
35 48
35 49
35 50
35 51
35 53
35 55
35 57
35 58
35 59
35 60
35 62
35 64
35 65
35 66
35 71
35 75
35 76
35 77
35 78
35 80
35 81
35 83
35 86
35 87
35 88
35 89
35 91
35 93
35 96
35 100
35 101
35 105
35 106
35 109
35 110
35 118
36 38
36 40
36 42
36 44
36 47
36 52
36 56
36 62
36 63
36 66
36 67
36 68
36 70
36 71
36 72
36 77
36 78
36 79
36 84
36 85
36 86
36 87
36 89
36 91
36 99
36 100
36 101
36 103
36 104
36 110
36 114
36 115
36 117
37 38
37 39
37 40
37 41
37 42
37 43
37 45
37 47
37 48
37 49
37 51
37 54
37 57
37 60
37 62
37 63
37 64
37 66
37 69
37 71
37 72
37 74
37 76
37 79
37 80
37 81
37 83
37 84
37 86
37 89
37 90
37 91
37 93
37 97
37 99
37 100
37 104
37 108
37 113
37 115
37 119
38 41
38 42
38 43
38 48
38 49
38 50
38 54
38 55
38 57
38 59
38 61
38 62
38 63
38 66
38 67
38 68
38 69
38 71
38 76
38 77
38 78
38 79
38 83
38 85
38 87
38 90
38 91
38 92
38 94
38 95
38 96
38 99
38 100
38 104
38 106
38 107
38 108
38 109
38 110
38 112
38 115
38 116
38 117
38 118
39 40
39 45
39 46
39 52
39 54
39 55
39 57
39 58
39 61
39 63
39 65
39 68
39 69
39 70
39 71
39 74
39 76
39 78
39 79
39 80
39 81
39 85
39 86
39 87
39 92
39 94
39 95
39 97
39 98
39 101
39 104
39 105
39 107
39 108
39 113
39 115
39 118
40 41
40 44
40 46
40 48
40 49
40 50
40 52
40 57
40 60
40 61
40 62
40 63
40 65
40 66
40 67
40 72
40 78
40 80
40 81
40 83
40 84
40 87
40 91
40 99
40 101
40 104
40 105
40 106
40 107
40 108
40 109
40 110
40 114
40 115
40 116
40 117
41 43
41 44
41 49
41 50
41 52
41 54
41 55
41 56
41 57
41 58
41 63
41 64
41 66
41 68
41 69
41 70
41 71
41 72
41 74
41 75
41 79
41 80
41 81
41 82
41 83
41 85
41 90
41 92
41 93
41 95
41 98
41 99
41 100
41 103
41 104
41 106
41 111
41 112
41 116
41 117
41 118
42 44
42 45
42 47
42 50
42 52
42 55
42 59
42 60
42 64
42 65
42 66
42 68
42 69
42 73
42 74
42 75
42 76
42 77
42 78
42 79
42 80
42 82
42 84
42 85
42 90
42 91
42 94
42 98
42 100
42 103
42 105
42 106
42 107
42 109
42 111
42 113
42 117
43 44
43 46
43 48
43 50
43 53
43 55
43 56
43 57
43 58
43 59
43 63
43 66
43 67
43 70
43 71
43 72
43 76
43 78
43 81
43 82
43 84
43 87
43 88
43 92
43 99
43 105
43 108
43 109
43 110
43 111
43 113
43 117
43 118
44 45
44 46
44 47
44 48
44 49
44 52
44 54
44 55
44 56
44 58
44 59
44 60
44 63
44 64
44 65
44 66
44 69
44 72
44 73
44 74
44 76
44 78
44 79
44 80
44 82
44 86
44 88
44 90
44 91
44 93
44 94
44 96
44 97
44 98
44 100
44 105
44 106
44 109
44 112
44 113
44 114
44 118
45 47
45 49
45 50
45 55
45 61
45 67
45 68
45 70
45 72
45 74
45 79
45 80
45 81
45 83
45 85
45 86
45 92
45 94
45 95
45 98
45 100
45 101
45 102
45 105
45 106
45 109
45 112
45 113
45 114
45 116
45 118
46 48
46 50
46 51
46 53
46 54
46 55
46 56
46 59
46 61
46 62
46 63
46 64
46 65
46 67
46 69
46 72
46 76
46 77
46 78
46 80
46 81
46 82
46 84
46 86
46 88
46 89
46 91
46 95
46 98
46 103
46 104
46 106
46 107
46 108
46 110
46 111
46 115
46 117
46 119
47 49
47 51
47 52
47 54
47 55
47 57
47 58
47 59
47 61
47 68
47 70
47 71
47 72
47 79
47 80
47 81
47 84
47 85
47 87
47 91
47 94
47 95
47 96
47 97
47 100
47 102
47 104
47 105
47 106
47 108
47 111
47 113
47 115
47 117
47 118
48 50
48 51
48 57
48 58
48 59
48 61
48 63
48 65
48 66
48 70
48 72
48 73
48 74
48 75
48 76
48 77
48 78
48 79
48 82
48 83
48 86
48 87
48 88
48 90
48 91
48 92
48 93
48 95
48 96
48 97
48 100
48 102
48 103
48 104
48 105
48 106
48 107
48 108
48 110
48 111
48 112
48 113
48 114
48 116
49 52
49 54
49 57
49 69
49 75
49 76
49 77
49 78
49 79
49 81
49 82
49 84
49 86
49 87
49 88
49 90
49 92
49 93
49 94
49 99
49 100
49 102
49 103
49 104
49 105
49 106
49 108
49 110
49 113
49 114
50 51
50 53
50 55
50 58
50 59
50 61
50 63
50 64
50 67
50 68
50 70
50 71
50 76
50 78
50 79
50 80
50 81
50 82
50 83
50 84
50 87
50 89
50 90
50 94
50 97
50 103
50 105
50 106
50 107
50 108
50 114
50 116
50 117
50 119
51 53
51 54
51 55
51 57
51 59
51 61
51 62
51 67
51 69
51 71
51 72
51 73
51 74
51 76
51 78
51 87
51 89
51 90
51 97
51 98
51 100
51 101
51 102
51 103
51 106
51 107
51 108
51 111
51 113
51 114
51 118
51 119
52 55
52 57
52 62
52 63
52 65
52 68
52 72
52 73
52 74
52 76
52 77
52 80
52 82
52 84
52 85
52 87
52 90
52 94
52 95
52 96
52 98
52 99
52 101
52 103
52 107
52 108
52 109
52 113
52 115
52 116
53 55
53 58
53 59
53 62
53 63
53 65
53 67
53 70
53 71
53 75
53 78
53 81
53 82
53 83
53 85
53 87
53 88
53 89
53 91
53 92
53 93
53 99
53 102
53 103
53 104
53 105
53 106
53 108
53 109
53 110
53 112
53 113
53 116
53 118
53 119
54 55
54 56
54 58
54 60
54 61
54 62
54 67
54 69
54 70
54 72
54 74
54 75
54 76
54 79
54 82
54 83
54 84
54 85
54 88
54 89
54 90
54 91
54 93
54 95
54 100
54 101
54 104
54 105
54 106
54 107
54 108
54 109
54 110
54 111
54 112
54 113
54 114
55 56
55 57
55 61
55 64
55 65
55 67
55 68
55 69
55 71
55 72
55 73
55 77
55 78
55 79
55 82
55 83
55 85
55 86
55 87
55 88
55 90
55 91
55 92
55 93
55 94
55 100
55 101
55 102
55 103
55 108
55 110
55 112
55 117
55 118
56 57
56 59
56 61
56 62
56 64
56 66
56 69
56 70
56 72
56 73
56 75
56 76
56 77
56 78
56 79
56 80
56 82
56 84
56 86
56 90
56 91
56 98
56 99
56 101
56 103
56 104
56 106
56 107
56 108
56 109
56 110
56 112
56 113
56 115
56 119
57 59
57 68
57 73
57 76
57 78
57 79
57 81
57 82
57 83
57 84
57 86
57 87
57 88
57 89
57 90
57 91
57 92
57 94
57 97
57 99
57 102
57 103
57 104
57 105
57 107
57 113
57 115
57 116
57 117
58 60
58 63
58 67
58 69
58 71
58 74
58 77
58 78
58 80
58 81
58 82
58 84
58 85
58 86
58 88
58 90
58 93
58 94
58 96
58 97
58 98
58 100
58 101
58 103
58 111
58 112
58 113
59 61
59 65
59 66
59 67
59 68
59 71
59 73
59 76
59 78
59 79
59 82
59 83
59 87
59 90
59 91
59 92
59 93
59 94
59 95
59 97
59 98
59 100
59 102
59 105
59 106
59 107
59 108
59 109
59 111
59 113
59 114
59 115
59 118
59 119
60 65
60 66
60 67
60 69
60 71
60 73
60 79
60 80
60 83
60 84
60 85
60 86
60 87
60 90
60 91
60 92
60 96
60 99
60 101
60 104
60 109
60 111
60 113
60 114
60 115
60 116
60 117
60 119
61 62
61 64
61 65
61 66
61 71
61 72
61 75
61 76
61 77
61 81
61 82
61 84
61 86
61 87
61 88
61 90
61 91
61 93
61 94
61 98
61 99
61 100
61 101
61 102
61 103
61 104
61 105
61 106
61 107
61 108
61 111
61 113
61 114
61 115
61 117
61 118
61 119
62 64
62 65
62 66
62 67
62 68
62 72
62 73
62 74
62 75
62 78
62 84
62 86
62 87
62 88
62 91
62 95
62 101
62 102
62 103
62 104
62 105
62 106
62 107
62 109
62 112
62 113
62 116
62 117
63 65
63 68
63 69
63 70
63 79
63 82
63 83
63 84
63 85
63 92
63 93
63 96
63 98
63 101
63 105
63 106
63 109
63 115
63 118
63 119
64 68
64 71
64 72
64 73
64 75
64 77
64 79
64 80
64 82
64 85
64 86
64 89
64 91
64 92
64 93
64 94
64 103
64 106
64 108
64 109
64 111
64 116
64 118
65 66
65 68
65 71
65 75
65 76
65 78
65 79
65 81
65 82
65 83
65 84
65 91
65 92
65 93
65 94
65 95
65 97
65 101
65 102
65 104
65 108
65 113
65 115
65 116
65 117
66 73
66 74
66 76
66 77
66 83
66 84
66 85
66 86
66 87
66 88
66 90
66 91
66 94
66 95
66 97
66 98
66 99
66 101
66 103
66 105
66 107
66 115
66 116
66 117
66 118
66 119
67 68
67 69
67 70
67 72
67 73
67 75
67 76
67 78
67 80
67 82
67 83
67 84
67 85
67 86
67 90
67 91
67 93
67 94
67 95
67 97
67 98
67 100
67 101
67 105
67 112
67 113
67 114
67 115
67 116
67 117
68 69
68 71
68 72
68 73
68 75
68 76
68 77
68 78
68 80
68 82
68 83
68 86
68 94
68 97
68 102
68 103
68 105
68 107
68 109
68 110
68 112
68 114
68 115
68 119
69 70
69 71
69 72
69 75
69 76
69 80
69 81
69 83
69 84
69 86
69 88
69 90
69 93
69 94
69 95
69 96
69 97
69 100
69 103
69 108
69 111
69 112
69 113
69 114
69 117
69 118
69 119
70 74
70 77
70 79
70 80
70 81
70 84
70 85
70 87
70 88
70 90
70 92
70 94
70 98
70 100
70 101
70 102
70 103
70 108
70 109
70 110
70 111
70 112
70 114
70 115
70 117
71 72
71 74
71 75
71 76
71 77
71 82
71 83
71 84
71 85
71 93
71 94
71 96
71 99
71 100
71 103
71 106
71 107
71 112
72 74
72 75
72 78
72 80
72 82
72 85
72 88
72 89
72 91
72 97
72 101
72 102
72 103
72 104
72 106
72 107
72 110
72 111
72 114
72 115
72 116
72 118
73 74
73 79
73 84
73 86
73 87
73 88
73 90
73 92
73 93
73 100
73 101
73 102
73 105
73 106
73 108
73 109
73 110
73 111
73 112
73 113
73 114
73 116
73 117
73 119
74 75
74 76
74 77
74 78
74 80
74 82
74 84
74 85
74 86
74 87
74 90
74 91
74 92
74 93
74 94
74 95
74 96
74 100
74 101
74 105
74 106
74 107
74 109
74 110
74 112
74 114
74 115
74 117
74 119
75 77
75 78
75 79
75 80
75 81
75 82
75 83
75 84
75 88
75 89
75 91
75 93
75 96
75 98
75 102
75 103
75 105
75 106
75 109
75 114
75 115
75 117
75 118
75 119
76 77
76 79
76 80
76 82
76 85
76 86
76 88
76 89
76 90
76 91
76 93
76 94
76 97
76 98
76 99
76 104
76 107
76 108
76 109
76 113
76 115
76 117
76 119
77 78
77 79
77 80
77 83
77 84
77 85
77 86
77 87
77 88
77 90
77 91
77 92
77 93
77 96
77 97
77 101
77 102
77 103
77 104
77 105
77 106
77 112
77 115
77 116
77 118
77 119
78 81
78 82
78 83
78 84
78 85
78 86
78 87
78 88
78 89
78 91
78 92
78 93
78 94
78 95
78 96
78 98
78 99
78 104
78 107
78 108
78 110
78 111
78 112
78 113
78 114
78 117
79 82
79 84
79 86
79 87
79 89
79 93
79 94
79 96
79 97
79 102
79 103
79 104
79 105
79 109
79 111
79 112
79 113
79 116
79 118
80 81
80 82
80 85
80 87
80 88
80 89
80 91
80 93
80 94
80 95
80 96
80 100
80 102
80 105
80 106
80 109
80 110
80 112
80 113
80 114
80 117
81 82
81 84
81 86
81 89
81 93
81 96
81 97
81 98
81 100
81 101
81 103
81 104
81 106
81 107
81 108
81 109
81 113
81 114
81 115
81 116
81 117
81 119
82 83
82 85
82 87
82 89
82 91
82 96
82 100
82 101
82 102
82 106
82 107
82 110
82 112
82 113
82 114
82 117
82 119
83 86
83 88
83 90
83 91
83 92
83 95
83 96
83 97
83 101
83 103
83 104
83 105
83 106
83 110
83 111
83 115
83 116
83 117
83 118
83 119
84 86
84 87
84 94
84 95
84 97
84 100
84 101
84 103
84 105
84 108
84 109
84 112
84 115
85 87
85 90
85 91
85 93
85 94
85 95
85 97
85 98
85 99
85 104
85 105
85 106
85 109
85 110
85 111
85 112
85 113
85 115
85 116
85 118
85 119
86 88
86 89
86 91
86 93
86 95
86 98
86 103
86 104
86 105
86 106
86 107
86 109
86 111
86 116
86 118
86 119
87 88
87 91
87 96
87 97
87 101
87 102
87 104
87 106
87 107
87 109
87 111
87 112
87 113
87 114
87 115
87 118
88 89
88 91
88 95
88 96
88 97
88 103
88 105
88 109
88 110
88 111
88 112
88 113
88 114
88 115
88 117
88 119
89 90
89 91
89 92
89 93
89 94
89 99
89 100
89 101
89 104
89 110
89 113
89 116
90 94
90 96
90 97
90 102
90 105
90 106
90 108
90 113
90 114
90 117
90 119
91 92
91 93
91 97
91 102
91 103
91 108
91 111
91 114
91 115
91 116
91 117
91 118
92 95
92 97
92 98
92 100
92 101
92 108
92 109
92 112
92 113
92 115
92 116
92 117
92 119
93 94
93 99
93 100
93 101
93 104
93 106
93 107
93 108
93 110
93 111
93 113
93 115
93 116
93 117
93 118
93 119
94 95
94 97
94 98
94 99
94 102
94 103
94 105
94 110
94 112
94 114
94 115
94 118
95 99
95 103
95 108
95 114
95 115
95 117
95 118
95 119
96 100
96 106
96 111
96 112
96 113
96 114
96 115
96 118
96 119
97 98
97 99
97 102
97 107
97 108
97 110
97 111
97 112
97 113
97 114
97 115
97 118
98 99
98 101
98 103
98 104
98 105
98 106
98 107
98 108
98 109
98 110
98 113
98 114
98 118
98 119
99 100
99 101
99 103
99 104
99 106
99 107
99 109
99 111
99 112
99 113
99 114
99 116
99 118
100 101
100 103
100 104
100 108
100 112
100 118
100 119
101 104
101 107
101 108
101 109
101 110
101 113
101 114
101 115
101 116
101 117
101 118
102 104
102 106
102 107
102 109
102 110
102 112
102 113
102 119
103 106
103 108
103 111
103 112
103 114
103 115
103 116
103 117
104 105
104 107
104 108
104 112
104 114
104 115
104 116
104 117
104 119
105 106
105 107
105 108
105 109
105 110
105 111
105 112
105 113
105 115
105 117
105 119
106 110
106 111
106 112
106 113
106 115
106 117
107 108
107 109
107 111
107 114
107 115
107 118
107 119
108 110
108 111
108 112
108 114
108 115
108 116
108 119
109 115
109 116
109 118
110 112
110 113
110 115
110 116
110 119
111 112
111 114
111 116
111 119
112 114
112 117
112 118
113 116
113 119
114 116
114 117
114 119
115 118
115 119
116 117
117 118
117 119
30 93
2 87
85 95
90 96
28 52
56 115
101 107
38 108
46 48
3 84
13 70
17 18
81 109
25 79
10 106
91 92
58 116
43 49
24 54
69 111
89 105
66 73
104 113
23 77
47 65
35 42
45 83
36 39
8 21
33 61
6 29
22 40
53 67
15 37
59 82
72 78
5 11
0 14
74 119
9 76
88 103
20 60
32 71
4 63
7 41
44 112
64 80
26 118
27 99
57 102
51 114
55 117
86 110
19 68
62 97
12 98
1 75
16 50
31 100
34 94
